c *********************************
c * Circuit generated by BenCGen
c *
c * RippleCarryAdder_118_118_118_InOutT
c *
c * Ports with 1 gate(s): 1
c * Ports with 2 gate(s): 591
c * Total gates: 592
c *********************************
p cnf 828 2011
1 357 0
-1 -357 0
1 -356 0
357 -356 0
-1 -357 356 0
1 119 -359 0
-1 119 359 0
1 -119 359 0
-1 -119 -359 0
359 356 -237 0
-359 356 237 0
359 -356 237 0
-359 -356 -237 0
356 -360 0
359 -360 0
-356 -359 360 0
119 -361 0
1 -361 0
-119 -1 361 0
-360 358 0
-361 358 0
360 361 -358 0
2 120 -363 0
-2 120 363 0
2 -120 363 0
-2 -120 -363 0
363 358 -238 0
-363 358 238 0
363 -358 238 0
-363 -358 -238 0
358 -364 0
363 -364 0
-358 -363 364 0
120 -365 0
2 -365 0
-120 -2 365 0
-364 362 0
-365 362 0
364 365 -362 0
3 121 -367 0
-3 121 367 0
3 -121 367 0
-3 -121 -367 0
367 362 -239 0
-367 362 239 0
367 -362 239 0
-367 -362 -239 0
362 -368 0
367 -368 0
-362 -367 368 0
121 -369 0
3 -369 0
-121 -3 369 0
-368 366 0
-369 366 0
368 369 -366 0
4 122 -371 0
-4 122 371 0
4 -122 371 0
-4 -122 -371 0
371 366 -240 0
-371 366 240 0
371 -366 240 0
-371 -366 -240 0
366 -372 0
371 -372 0
-366 -371 372 0
122 -373 0
4 -373 0
-122 -4 373 0
-372 370 0
-373 370 0
372 373 -370 0
5 123 -375 0
-5 123 375 0
5 -123 375 0
-5 -123 -375 0
375 370 -241 0
-375 370 241 0
375 -370 241 0
-375 -370 -241 0
370 -376 0
375 -376 0
-370 -375 376 0
123 -377 0
5 -377 0
-123 -5 377 0
-376 374 0
-377 374 0
376 377 -374 0
6 124 -379 0
-6 124 379 0
6 -124 379 0
-6 -124 -379 0
379 374 -242 0
-379 374 242 0
379 -374 242 0
-379 -374 -242 0
374 -380 0
379 -380 0
-374 -379 380 0
124 -381 0
6 -381 0
-124 -6 381 0
-380 378 0
-381 378 0
380 381 -378 0
7 125 -383 0
-7 125 383 0
7 -125 383 0
-7 -125 -383 0
383 378 -243 0
-383 378 243 0
383 -378 243 0
-383 -378 -243 0
378 -384 0
383 -384 0
-378 -383 384 0
125 -385 0
7 -385 0
-125 -7 385 0
-384 382 0
-385 382 0
384 385 -382 0
8 126 -387 0
-8 126 387 0
8 -126 387 0
-8 -126 -387 0
387 382 -244 0
-387 382 244 0
387 -382 244 0
-387 -382 -244 0
382 -388 0
387 -388 0
-382 -387 388 0
126 -389 0
8 -389 0
-126 -8 389 0
-388 386 0
-389 386 0
388 389 -386 0
9 127 -391 0
-9 127 391 0
9 -127 391 0
-9 -127 -391 0
391 386 -245 0
-391 386 245 0
391 -386 245 0
-391 -386 -245 0
386 -392 0
391 -392 0
-386 -391 392 0
127 -393 0
9 -393 0
-127 -9 393 0
-392 390 0
-393 390 0
392 393 -390 0
10 128 -395 0
-10 128 395 0
10 -128 395 0
-10 -128 -395 0
395 390 -246 0
-395 390 246 0
395 -390 246 0
-395 -390 -246 0
390 -396 0
395 -396 0
-390 -395 396 0
128 -397 0
10 -397 0
-128 -10 397 0
-396 394 0
-397 394 0
396 397 -394 0
11 129 -399 0
-11 129 399 0
11 -129 399 0
-11 -129 -399 0
399 394 -247 0
-399 394 247 0
399 -394 247 0
-399 -394 -247 0
394 -400 0
399 -400 0
-394 -399 400 0
129 -401 0
11 -401 0
-129 -11 401 0
-400 398 0
-401 398 0
400 401 -398 0
12 130 -403 0
-12 130 403 0
12 -130 403 0
-12 -130 -403 0
403 398 -248 0
-403 398 248 0
403 -398 248 0
-403 -398 -248 0
398 -404 0
403 -404 0
-398 -403 404 0
130 -405 0
12 -405 0
-130 -12 405 0
-404 402 0
-405 402 0
404 405 -402 0
13 131 -407 0
-13 131 407 0
13 -131 407 0
-13 -131 -407 0
407 402 -249 0
-407 402 249 0
407 -402 249 0
-407 -402 -249 0
402 -408 0
407 -408 0
-402 -407 408 0
131 -409 0
13 -409 0
-131 -13 409 0
-408 406 0
-409 406 0
408 409 -406 0
14 132 -411 0
-14 132 411 0
14 -132 411 0
-14 -132 -411 0
411 406 -250 0
-411 406 250 0
411 -406 250 0
-411 -406 -250 0
406 -412 0
411 -412 0
-406 -411 412 0
132 -413 0
14 -413 0
-132 -14 413 0
-412 410 0
-413 410 0
412 413 -410 0
15 133 -415 0
-15 133 415 0
15 -133 415 0
-15 -133 -415 0
415 410 -251 0
-415 410 251 0
415 -410 251 0
-415 -410 -251 0
410 -416 0
415 -416 0
-410 -415 416 0
133 -417 0
15 -417 0
-133 -15 417 0
-416 414 0
-417 414 0
416 417 -414 0
16 134 -419 0
-16 134 419 0
16 -134 419 0
-16 -134 -419 0
419 414 -252 0
-419 414 252 0
419 -414 252 0
-419 -414 -252 0
414 -420 0
419 -420 0
-414 -419 420 0
134 -421 0
16 -421 0
-134 -16 421 0
-420 418 0
-421 418 0
420 421 -418 0
17 135 -423 0
-17 135 423 0
17 -135 423 0
-17 -135 -423 0
423 418 -253 0
-423 418 253 0
423 -418 253 0
-423 -418 -253 0
418 -424 0
423 -424 0
-418 -423 424 0
135 -425 0
17 -425 0
-135 -17 425 0
-424 422 0
-425 422 0
424 425 -422 0
18 136 -427 0
-18 136 427 0
18 -136 427 0
-18 -136 -427 0
427 422 -254 0
-427 422 254 0
427 -422 254 0
-427 -422 -254 0
422 -428 0
427 -428 0
-422 -427 428 0
136 -429 0
18 -429 0
-136 -18 429 0
-428 426 0
-429 426 0
428 429 -426 0
19 137 -431 0
-19 137 431 0
19 -137 431 0
-19 -137 -431 0
431 426 -255 0
-431 426 255 0
431 -426 255 0
-431 -426 -255 0
426 -432 0
431 -432 0
-426 -431 432 0
137 -433 0
19 -433 0
-137 -19 433 0
-432 430 0
-433 430 0
432 433 -430 0
20 138 -435 0
-20 138 435 0
20 -138 435 0
-20 -138 -435 0
435 430 -256 0
-435 430 256 0
435 -430 256 0
-435 -430 -256 0
430 -436 0
435 -436 0
-430 -435 436 0
138 -437 0
20 -437 0
-138 -20 437 0
-436 434 0
-437 434 0
436 437 -434 0
21 139 -439 0
-21 139 439 0
21 -139 439 0
-21 -139 -439 0
439 434 -257 0
-439 434 257 0
439 -434 257 0
-439 -434 -257 0
434 -440 0
439 -440 0
-434 -439 440 0
139 -441 0
21 -441 0
-139 -21 441 0
-440 438 0
-441 438 0
440 441 -438 0
22 140 -443 0
-22 140 443 0
22 -140 443 0
-22 -140 -443 0
443 438 -258 0
-443 438 258 0
443 -438 258 0
-443 -438 -258 0
438 -444 0
443 -444 0
-438 -443 444 0
140 -445 0
22 -445 0
-140 -22 445 0
-444 442 0
-445 442 0
444 445 -442 0
23 141 -447 0
-23 141 447 0
23 -141 447 0
-23 -141 -447 0
447 442 -259 0
-447 442 259 0
447 -442 259 0
-447 -442 -259 0
442 -448 0
447 -448 0
-442 -447 448 0
141 -449 0
23 -449 0
-141 -23 449 0
-448 446 0
-449 446 0
448 449 -446 0
24 142 -451 0
-24 142 451 0
24 -142 451 0
-24 -142 -451 0
451 446 -260 0
-451 446 260 0
451 -446 260 0
-451 -446 -260 0
446 -452 0
451 -452 0
-446 -451 452 0
142 -453 0
24 -453 0
-142 -24 453 0
-452 450 0
-453 450 0
452 453 -450 0
25 143 -455 0
-25 143 455 0
25 -143 455 0
-25 -143 -455 0
455 450 -261 0
-455 450 261 0
455 -450 261 0
-455 -450 -261 0
450 -456 0
455 -456 0
-450 -455 456 0
143 -457 0
25 -457 0
-143 -25 457 0
-456 454 0
-457 454 0
456 457 -454 0
26 144 -459 0
-26 144 459 0
26 -144 459 0
-26 -144 -459 0
459 454 -262 0
-459 454 262 0
459 -454 262 0
-459 -454 -262 0
454 -460 0
459 -460 0
-454 -459 460 0
144 -461 0
26 -461 0
-144 -26 461 0
-460 458 0
-461 458 0
460 461 -458 0
27 145 -463 0
-27 145 463 0
27 -145 463 0
-27 -145 -463 0
463 458 -263 0
-463 458 263 0
463 -458 263 0
-463 -458 -263 0
458 -464 0
463 -464 0
-458 -463 464 0
145 -465 0
27 -465 0
-145 -27 465 0
-464 462 0
-465 462 0
464 465 -462 0
28 146 -467 0
-28 146 467 0
28 -146 467 0
-28 -146 -467 0
467 462 -264 0
-467 462 264 0
467 -462 264 0
-467 -462 -264 0
462 -468 0
467 -468 0
-462 -467 468 0
146 -469 0
28 -469 0
-146 -28 469 0
-468 466 0
-469 466 0
468 469 -466 0
29 147 -471 0
-29 147 471 0
29 -147 471 0
-29 -147 -471 0
471 466 -265 0
-471 466 265 0
471 -466 265 0
-471 -466 -265 0
466 -472 0
471 -472 0
-466 -471 472 0
147 -473 0
29 -473 0
-147 -29 473 0
-472 470 0
-473 470 0
472 473 -470 0
30 148 -475 0
-30 148 475 0
30 -148 475 0
-30 -148 -475 0
475 470 -266 0
-475 470 266 0
475 -470 266 0
-475 -470 -266 0
470 -476 0
475 -476 0
-470 -475 476 0
148 -477 0
30 -477 0
-148 -30 477 0
-476 474 0
-477 474 0
476 477 -474 0
31 149 -479 0
-31 149 479 0
31 -149 479 0
-31 -149 -479 0
479 474 -267 0
-479 474 267 0
479 -474 267 0
-479 -474 -267 0
474 -480 0
479 -480 0
-474 -479 480 0
149 -481 0
31 -481 0
-149 -31 481 0
-480 478 0
-481 478 0
480 481 -478 0
32 150 -483 0
-32 150 483 0
32 -150 483 0
-32 -150 -483 0
483 478 -268 0
-483 478 268 0
483 -478 268 0
-483 -478 -268 0
478 -484 0
483 -484 0
-478 -483 484 0
150 -485 0
32 -485 0
-150 -32 485 0
-484 482 0
-485 482 0
484 485 -482 0
33 151 -487 0
-33 151 487 0
33 -151 487 0
-33 -151 -487 0
487 482 -269 0
-487 482 269 0
487 -482 269 0
-487 -482 -269 0
482 -488 0
487 -488 0
-482 -487 488 0
151 -489 0
33 -489 0
-151 -33 489 0
-488 486 0
-489 486 0
488 489 -486 0
34 152 -491 0
-34 152 491 0
34 -152 491 0
-34 -152 -491 0
491 486 -270 0
-491 486 270 0
491 -486 270 0
-491 -486 -270 0
486 -492 0
491 -492 0
-486 -491 492 0
152 -493 0
34 -493 0
-152 -34 493 0
-492 490 0
-493 490 0
492 493 -490 0
35 153 -495 0
-35 153 495 0
35 -153 495 0
-35 -153 -495 0
495 490 -271 0
-495 490 271 0
495 -490 271 0
-495 -490 -271 0
490 -496 0
495 -496 0
-490 -495 496 0
153 -497 0
35 -497 0
-153 -35 497 0
-496 494 0
-497 494 0
496 497 -494 0
36 154 -499 0
-36 154 499 0
36 -154 499 0
-36 -154 -499 0
499 494 -272 0
-499 494 272 0
499 -494 272 0
-499 -494 -272 0
494 -500 0
499 -500 0
-494 -499 500 0
154 -501 0
36 -501 0
-154 -36 501 0
-500 498 0
-501 498 0
500 501 -498 0
37 155 -503 0
-37 155 503 0
37 -155 503 0
-37 -155 -503 0
503 498 -273 0
-503 498 273 0
503 -498 273 0
-503 -498 -273 0
498 -504 0
503 -504 0
-498 -503 504 0
155 -505 0
37 -505 0
-155 -37 505 0
-504 502 0
-505 502 0
504 505 -502 0
38 156 -507 0
-38 156 507 0
38 -156 507 0
-38 -156 -507 0
507 502 -274 0
-507 502 274 0
507 -502 274 0
-507 -502 -274 0
502 -508 0
507 -508 0
-502 -507 508 0
156 -509 0
38 -509 0
-156 -38 509 0
-508 506 0
-509 506 0
508 509 -506 0
39 157 -511 0
-39 157 511 0
39 -157 511 0
-39 -157 -511 0
511 506 -275 0
-511 506 275 0
511 -506 275 0
-511 -506 -275 0
506 -512 0
511 -512 0
-506 -511 512 0
157 -513 0
39 -513 0
-157 -39 513 0
-512 510 0
-513 510 0
512 513 -510 0
40 158 -515 0
-40 158 515 0
40 -158 515 0
-40 -158 -515 0
515 510 -276 0
-515 510 276 0
515 -510 276 0
-515 -510 -276 0
510 -516 0
515 -516 0
-510 -515 516 0
158 -517 0
40 -517 0
-158 -40 517 0
-516 514 0
-517 514 0
516 517 -514 0
41 159 -519 0
-41 159 519 0
41 -159 519 0
-41 -159 -519 0
519 514 -277 0
-519 514 277 0
519 -514 277 0
-519 -514 -277 0
514 -520 0
519 -520 0
-514 -519 520 0
159 -521 0
41 -521 0
-159 -41 521 0
-520 518 0
-521 518 0
520 521 -518 0
42 160 -523 0
-42 160 523 0
42 -160 523 0
-42 -160 -523 0
523 518 -278 0
-523 518 278 0
523 -518 278 0
-523 -518 -278 0
518 -524 0
523 -524 0
-518 -523 524 0
160 -525 0
42 -525 0
-160 -42 525 0
-524 522 0
-525 522 0
524 525 -522 0
43 161 -527 0
-43 161 527 0
43 -161 527 0
-43 -161 -527 0
527 522 -279 0
-527 522 279 0
527 -522 279 0
-527 -522 -279 0
522 -528 0
527 -528 0
-522 -527 528 0
161 -529 0
43 -529 0
-161 -43 529 0
-528 526 0
-529 526 0
528 529 -526 0
44 162 -531 0
-44 162 531 0
44 -162 531 0
-44 -162 -531 0
531 526 -280 0
-531 526 280 0
531 -526 280 0
-531 -526 -280 0
526 -532 0
531 -532 0
-526 -531 532 0
162 -533 0
44 -533 0
-162 -44 533 0
-532 530 0
-533 530 0
532 533 -530 0
45 163 -535 0
-45 163 535 0
45 -163 535 0
-45 -163 -535 0
535 530 -281 0
-535 530 281 0
535 -530 281 0
-535 -530 -281 0
530 -536 0
535 -536 0
-530 -535 536 0
163 -537 0
45 -537 0
-163 -45 537 0
-536 534 0
-537 534 0
536 537 -534 0
46 164 -539 0
-46 164 539 0
46 -164 539 0
-46 -164 -539 0
539 534 -282 0
-539 534 282 0
539 -534 282 0
-539 -534 -282 0
534 -540 0
539 -540 0
-534 -539 540 0
164 -541 0
46 -541 0
-164 -46 541 0
-540 538 0
-541 538 0
540 541 -538 0
47 165 -543 0
-47 165 543 0
47 -165 543 0
-47 -165 -543 0
543 538 -283 0
-543 538 283 0
543 -538 283 0
-543 -538 -283 0
538 -544 0
543 -544 0
-538 -543 544 0
165 -545 0
47 -545 0
-165 -47 545 0
-544 542 0
-545 542 0
544 545 -542 0
48 166 -547 0
-48 166 547 0
48 -166 547 0
-48 -166 -547 0
547 542 -284 0
-547 542 284 0
547 -542 284 0
-547 -542 -284 0
542 -548 0
547 -548 0
-542 -547 548 0
166 -549 0
48 -549 0
-166 -48 549 0
-548 546 0
-549 546 0
548 549 -546 0
49 167 -551 0
-49 167 551 0
49 -167 551 0
-49 -167 -551 0
551 546 -285 0
-551 546 285 0
551 -546 285 0
-551 -546 -285 0
546 -552 0
551 -552 0
-546 -551 552 0
167 -553 0
49 -553 0
-167 -49 553 0
-552 550 0
-553 550 0
552 553 -550 0
50 168 -555 0
-50 168 555 0
50 -168 555 0
-50 -168 -555 0
555 550 -286 0
-555 550 286 0
555 -550 286 0
-555 -550 -286 0
550 -556 0
555 -556 0
-550 -555 556 0
168 -557 0
50 -557 0
-168 -50 557 0
-556 554 0
-557 554 0
556 557 -554 0
51 169 -559 0
-51 169 559 0
51 -169 559 0
-51 -169 -559 0
559 554 -287 0
-559 554 287 0
559 -554 287 0
-559 -554 -287 0
554 -560 0
559 -560 0
-554 -559 560 0
169 -561 0
51 -561 0
-169 -51 561 0
-560 558 0
-561 558 0
560 561 -558 0
52 170 -563 0
-52 170 563 0
52 -170 563 0
-52 -170 -563 0
563 558 -288 0
-563 558 288 0
563 -558 288 0
-563 -558 -288 0
558 -564 0
563 -564 0
-558 -563 564 0
170 -565 0
52 -565 0
-170 -52 565 0
-564 562 0
-565 562 0
564 565 -562 0
53 171 -567 0
-53 171 567 0
53 -171 567 0
-53 -171 -567 0
567 562 -289 0
-567 562 289 0
567 -562 289 0
-567 -562 -289 0
562 -568 0
567 -568 0
-562 -567 568 0
171 -569 0
53 -569 0
-171 -53 569 0
-568 566 0
-569 566 0
568 569 -566 0
54 172 -571 0
-54 172 571 0
54 -172 571 0
-54 -172 -571 0
571 566 -290 0
-571 566 290 0
571 -566 290 0
-571 -566 -290 0
566 -572 0
571 -572 0
-566 -571 572 0
172 -573 0
54 -573 0
-172 -54 573 0
-572 570 0
-573 570 0
572 573 -570 0
55 173 -575 0
-55 173 575 0
55 -173 575 0
-55 -173 -575 0
575 570 -291 0
-575 570 291 0
575 -570 291 0
-575 -570 -291 0
570 -576 0
575 -576 0
-570 -575 576 0
173 -577 0
55 -577 0
-173 -55 577 0
-576 574 0
-577 574 0
576 577 -574 0
56 174 -579 0
-56 174 579 0
56 -174 579 0
-56 -174 -579 0
579 574 -292 0
-579 574 292 0
579 -574 292 0
-579 -574 -292 0
574 -580 0
579 -580 0
-574 -579 580 0
174 -581 0
56 -581 0
-174 -56 581 0
-580 578 0
-581 578 0
580 581 -578 0
57 175 -583 0
-57 175 583 0
57 -175 583 0
-57 -175 -583 0
583 578 -293 0
-583 578 293 0
583 -578 293 0
-583 -578 -293 0
578 -584 0
583 -584 0
-578 -583 584 0
175 -585 0
57 -585 0
-175 -57 585 0
-584 582 0
-585 582 0
584 585 -582 0
58 176 -587 0
-58 176 587 0
58 -176 587 0
-58 -176 -587 0
587 582 -294 0
-587 582 294 0
587 -582 294 0
-587 -582 -294 0
582 -588 0
587 -588 0
-582 -587 588 0
176 -589 0
58 -589 0
-176 -58 589 0
-588 586 0
-589 586 0
588 589 -586 0
59 177 -591 0
-59 177 591 0
59 -177 591 0
-59 -177 -591 0
591 586 -295 0
-591 586 295 0
591 -586 295 0
-591 -586 -295 0
586 -592 0
591 -592 0
-586 -591 592 0
177 -593 0
59 -593 0
-177 -59 593 0
-592 590 0
-593 590 0
592 593 -590 0
60 178 -595 0
-60 178 595 0
60 -178 595 0
-60 -178 -595 0
595 590 -296 0
-595 590 296 0
595 -590 296 0
-595 -590 -296 0
590 -596 0
595 -596 0
-590 -595 596 0
178 -597 0
60 -597 0
-178 -60 597 0
-596 594 0
-597 594 0
596 597 -594 0
61 179 -599 0
-61 179 599 0
61 -179 599 0
-61 -179 -599 0
599 594 -297 0
-599 594 297 0
599 -594 297 0
-599 -594 -297 0
594 -600 0
599 -600 0
-594 -599 600 0
179 -601 0
61 -601 0
-179 -61 601 0
-600 598 0
-601 598 0
600 601 -598 0
62 180 -603 0
-62 180 603 0
62 -180 603 0
-62 -180 -603 0
603 598 -298 0
-603 598 298 0
603 -598 298 0
-603 -598 -298 0
598 -604 0
603 -604 0
-598 -603 604 0
180 -605 0
62 -605 0
-180 -62 605 0
-604 602 0
-605 602 0
604 605 -602 0
63 181 -607 0
-63 181 607 0
63 -181 607 0
-63 -181 -607 0
607 602 -299 0
-607 602 299 0
607 -602 299 0
-607 -602 -299 0
602 -608 0
607 -608 0
-602 -607 608 0
181 -609 0
63 -609 0
-181 -63 609 0
-608 606 0
-609 606 0
608 609 -606 0
64 182 -611 0
-64 182 611 0
64 -182 611 0
-64 -182 -611 0
611 606 -300 0
-611 606 300 0
611 -606 300 0
-611 -606 -300 0
606 -612 0
611 -612 0
-606 -611 612 0
182 -613 0
64 -613 0
-182 -64 613 0
-612 610 0
-613 610 0
612 613 -610 0
65 183 -615 0
-65 183 615 0
65 -183 615 0
-65 -183 -615 0
615 610 -301 0
-615 610 301 0
615 -610 301 0
-615 -610 -301 0
610 -616 0
615 -616 0
-610 -615 616 0
183 -617 0
65 -617 0
-183 -65 617 0
-616 614 0
-617 614 0
616 617 -614 0
66 184 -619 0
-66 184 619 0
66 -184 619 0
-66 -184 -619 0
619 614 -302 0
-619 614 302 0
619 -614 302 0
-619 -614 -302 0
614 -620 0
619 -620 0
-614 -619 620 0
184 -621 0
66 -621 0
-184 -66 621 0
-620 618 0
-621 618 0
620 621 -618 0
67 185 -623 0
-67 185 623 0
67 -185 623 0
-67 -185 -623 0
623 618 -303 0
-623 618 303 0
623 -618 303 0
-623 -618 -303 0
618 -624 0
623 -624 0
-618 -623 624 0
185 -625 0
67 -625 0
-185 -67 625 0
-624 622 0
-625 622 0
624 625 -622 0
68 186 -627 0
-68 186 627 0
68 -186 627 0
-68 -186 -627 0
627 622 -304 0
-627 622 304 0
627 -622 304 0
-627 -622 -304 0
622 -628 0
627 -628 0
-622 -627 628 0
186 -629 0
68 -629 0
-186 -68 629 0
-628 626 0
-629 626 0
628 629 -626 0
69 187 -631 0
-69 187 631 0
69 -187 631 0
-69 -187 -631 0
631 626 -305 0
-631 626 305 0
631 -626 305 0
-631 -626 -305 0
626 -632 0
631 -632 0
-626 -631 632 0
187 -633 0
69 -633 0
-187 -69 633 0
-632 630 0
-633 630 0
632 633 -630 0
70 188 -635 0
-70 188 635 0
70 -188 635 0
-70 -188 -635 0
635 630 -306 0
-635 630 306 0
635 -630 306 0
-635 -630 -306 0
630 -636 0
635 -636 0
-630 -635 636 0
188 -637 0
70 -637 0
-188 -70 637 0
-636 634 0
-637 634 0
636 637 -634 0
71 189 -639 0
-71 189 639 0
71 -189 639 0
-71 -189 -639 0
639 634 -307 0
-639 634 307 0
639 -634 307 0
-639 -634 -307 0
634 -640 0
639 -640 0
-634 -639 640 0
189 -641 0
71 -641 0
-189 -71 641 0
-640 638 0
-641 638 0
640 641 -638 0
72 190 -643 0
-72 190 643 0
72 -190 643 0
-72 -190 -643 0
643 638 -308 0
-643 638 308 0
643 -638 308 0
-643 -638 -308 0
638 -644 0
643 -644 0
-638 -643 644 0
190 -645 0
72 -645 0
-190 -72 645 0
-644 642 0
-645 642 0
644 645 -642 0
73 191 -647 0
-73 191 647 0
73 -191 647 0
-73 -191 -647 0
647 642 -309 0
-647 642 309 0
647 -642 309 0
-647 -642 -309 0
642 -648 0
647 -648 0
-642 -647 648 0
191 -649 0
73 -649 0
-191 -73 649 0
-648 646 0
-649 646 0
648 649 -646 0
74 192 -651 0
-74 192 651 0
74 -192 651 0
-74 -192 -651 0
651 646 -310 0
-651 646 310 0
651 -646 310 0
-651 -646 -310 0
646 -652 0
651 -652 0
-646 -651 652 0
192 -653 0
74 -653 0
-192 -74 653 0
-652 650 0
-653 650 0
652 653 -650 0
75 193 -655 0
-75 193 655 0
75 -193 655 0
-75 -193 -655 0
655 650 -311 0
-655 650 311 0
655 -650 311 0
-655 -650 -311 0
650 -656 0
655 -656 0
-650 -655 656 0
193 -657 0
75 -657 0
-193 -75 657 0
-656 654 0
-657 654 0
656 657 -654 0
76 194 -659 0
-76 194 659 0
76 -194 659 0
-76 -194 -659 0
659 654 -312 0
-659 654 312 0
659 -654 312 0
-659 -654 -312 0
654 -660 0
659 -660 0
-654 -659 660 0
194 -661 0
76 -661 0
-194 -76 661 0
-660 658 0
-661 658 0
660 661 -658 0
77 195 -663 0
-77 195 663 0
77 -195 663 0
-77 -195 -663 0
663 658 -313 0
-663 658 313 0
663 -658 313 0
-663 -658 -313 0
658 -664 0
663 -664 0
-658 -663 664 0
195 -665 0
77 -665 0
-195 -77 665 0
-664 662 0
-665 662 0
664 665 -662 0
78 196 -667 0
-78 196 667 0
78 -196 667 0
-78 -196 -667 0
667 662 -314 0
-667 662 314 0
667 -662 314 0
-667 -662 -314 0
662 -668 0
667 -668 0
-662 -667 668 0
196 -669 0
78 -669 0
-196 -78 669 0
-668 666 0
-669 666 0
668 669 -666 0
79 197 -671 0
-79 197 671 0
79 -197 671 0
-79 -197 -671 0
671 666 -315 0
-671 666 315 0
671 -666 315 0
-671 -666 -315 0
666 -672 0
671 -672 0
-666 -671 672 0
197 -673 0
79 -673 0
-197 -79 673 0
-672 670 0
-673 670 0
672 673 -670 0
80 198 -675 0
-80 198 675 0
80 -198 675 0
-80 -198 -675 0
675 670 -316 0
-675 670 316 0
675 -670 316 0
-675 -670 -316 0
670 -676 0
675 -676 0
-670 -675 676 0
198 -677 0
80 -677 0
-198 -80 677 0
-676 674 0
-677 674 0
676 677 -674 0
81 199 -679 0
-81 199 679 0
81 -199 679 0
-81 -199 -679 0
679 674 -317 0
-679 674 317 0
679 -674 317 0
-679 -674 -317 0
674 -680 0
679 -680 0
-674 -679 680 0
199 -681 0
81 -681 0
-199 -81 681 0
-680 678 0
-681 678 0
680 681 -678 0
82 200 -683 0
-82 200 683 0
82 -200 683 0
-82 -200 -683 0
683 678 -318 0
-683 678 318 0
683 -678 318 0
-683 -678 -318 0
678 -684 0
683 -684 0
-678 -683 684 0
200 -685 0
82 -685 0
-200 -82 685 0
-684 682 0
-685 682 0
684 685 -682 0
83 201 -687 0
-83 201 687 0
83 -201 687 0
-83 -201 -687 0
687 682 -319 0
-687 682 319 0
687 -682 319 0
-687 -682 -319 0
682 -688 0
687 -688 0
-682 -687 688 0
201 -689 0
83 -689 0
-201 -83 689 0
-688 686 0
-689 686 0
688 689 -686 0
84 202 -691 0
-84 202 691 0
84 -202 691 0
-84 -202 -691 0
691 686 -320 0
-691 686 320 0
691 -686 320 0
-691 -686 -320 0
686 -692 0
691 -692 0
-686 -691 692 0
202 -693 0
84 -693 0
-202 -84 693 0
-692 690 0
-693 690 0
692 693 -690 0
85 203 -695 0
-85 203 695 0
85 -203 695 0
-85 -203 -695 0
695 690 -321 0
-695 690 321 0
695 -690 321 0
-695 -690 -321 0
690 -696 0
695 -696 0
-690 -695 696 0
203 -697 0
85 -697 0
-203 -85 697 0
-696 694 0
-697 694 0
696 697 -694 0
86 204 -699 0
-86 204 699 0
86 -204 699 0
-86 -204 -699 0
699 694 -322 0
-699 694 322 0
699 -694 322 0
-699 -694 -322 0
694 -700 0
699 -700 0
-694 -699 700 0
204 -701 0
86 -701 0
-204 -86 701 0
-700 698 0
-701 698 0
700 701 -698 0
87 205 -703 0
-87 205 703 0
87 -205 703 0
-87 -205 -703 0
703 698 -323 0
-703 698 323 0
703 -698 323 0
-703 -698 -323 0
698 -704 0
703 -704 0
-698 -703 704 0
205 -705 0
87 -705 0
-205 -87 705 0
-704 702 0
-705 702 0
704 705 -702 0
88 206 -707 0
-88 206 707 0
88 -206 707 0
-88 -206 -707 0
707 702 -324 0
-707 702 324 0
707 -702 324 0
-707 -702 -324 0
702 -708 0
707 -708 0
-702 -707 708 0
206 -709 0
88 -709 0
-206 -88 709 0
-708 706 0
-709 706 0
708 709 -706 0
89 207 -711 0
-89 207 711 0
89 -207 711 0
-89 -207 -711 0
711 706 -325 0
-711 706 325 0
711 -706 325 0
-711 -706 -325 0
706 -712 0
711 -712 0
-706 -711 712 0
207 -713 0
89 -713 0
-207 -89 713 0
-712 710 0
-713 710 0
712 713 -710 0
90 208 -715 0
-90 208 715 0
90 -208 715 0
-90 -208 -715 0
715 710 -326 0
-715 710 326 0
715 -710 326 0
-715 -710 -326 0
710 -716 0
715 -716 0
-710 -715 716 0
208 -717 0
90 -717 0
-208 -90 717 0
-716 714 0
-717 714 0
716 717 -714 0
91 209 -719 0
-91 209 719 0
91 -209 719 0
-91 -209 -719 0
719 714 -327 0
-719 714 327 0
719 -714 327 0
-719 -714 -327 0
714 -720 0
719 -720 0
-714 -719 720 0
209 -721 0
91 -721 0
-209 -91 721 0
-720 718 0
-721 718 0
720 721 -718 0
92 210 -723 0
-92 210 723 0
92 -210 723 0
-92 -210 -723 0
723 718 -328 0
-723 718 328 0
723 -718 328 0
-723 -718 -328 0
718 -724 0
723 -724 0
-718 -723 724 0
210 -725 0
92 -725 0
-210 -92 725 0
-724 722 0
-725 722 0
724 725 -722 0
93 211 -727 0
-93 211 727 0
93 -211 727 0
-93 -211 -727 0
727 722 -329 0
-727 722 329 0
727 -722 329 0
-727 -722 -329 0
722 -728 0
727 -728 0
-722 -727 728 0
211 -729 0
93 -729 0
-211 -93 729 0
-728 726 0
-729 726 0
728 729 -726 0
94 212 -731 0
-94 212 731 0
94 -212 731 0
-94 -212 -731 0
731 726 -330 0
-731 726 330 0
731 -726 330 0
-731 -726 -330 0
726 -732 0
731 -732 0
-726 -731 732 0
212 -733 0
94 -733 0
-212 -94 733 0
-732 730 0
-733 730 0
732 733 -730 0
95 213 -735 0
-95 213 735 0
95 -213 735 0
-95 -213 -735 0
735 730 -331 0
-735 730 331 0
735 -730 331 0
-735 -730 -331 0
730 -736 0
735 -736 0
-730 -735 736 0
213 -737 0
95 -737 0
-213 -95 737 0
-736 734 0
-737 734 0
736 737 -734 0
96 214 -739 0
-96 214 739 0
96 -214 739 0
-96 -214 -739 0
739 734 -332 0
-739 734 332 0
739 -734 332 0
-739 -734 -332 0
734 -740 0
739 -740 0
-734 -739 740 0
214 -741 0
96 -741 0
-214 -96 741 0
-740 738 0
-741 738 0
740 741 -738 0
97 215 -743 0
-97 215 743 0
97 -215 743 0
-97 -215 -743 0
743 738 -333 0
-743 738 333 0
743 -738 333 0
-743 -738 -333 0
738 -744 0
743 -744 0
-738 -743 744 0
215 -745 0
97 -745 0
-215 -97 745 0
-744 742 0
-745 742 0
744 745 -742 0
98 216 -747 0
-98 216 747 0
98 -216 747 0
-98 -216 -747 0
747 742 -334 0
-747 742 334 0
747 -742 334 0
-747 -742 -334 0
742 -748 0
747 -748 0
-742 -747 748 0
216 -749 0
98 -749 0
-216 -98 749 0
-748 746 0
-749 746 0
748 749 -746 0
99 217 -751 0
-99 217 751 0
99 -217 751 0
-99 -217 -751 0
751 746 -335 0
-751 746 335 0
751 -746 335 0
-751 -746 -335 0
746 -752 0
751 -752 0
-746 -751 752 0
217 -753 0
99 -753 0
-217 -99 753 0
-752 750 0
-753 750 0
752 753 -750 0
100 218 -755 0
-100 218 755 0
100 -218 755 0
-100 -218 -755 0
755 750 -336 0
-755 750 336 0
755 -750 336 0
-755 -750 -336 0
750 -756 0
755 -756 0
-750 -755 756 0
218 -757 0
100 -757 0
-218 -100 757 0
-756 754 0
-757 754 0
756 757 -754 0
101 219 -759 0
-101 219 759 0
101 -219 759 0
-101 -219 -759 0
759 754 -337 0
-759 754 337 0
759 -754 337 0
-759 -754 -337 0
754 -760 0
759 -760 0
-754 -759 760 0
219 -761 0
101 -761 0
-219 -101 761 0
-760 758 0
-761 758 0
760 761 -758 0
102 220 -763 0
-102 220 763 0
102 -220 763 0
-102 -220 -763 0
763 758 -338 0
-763 758 338 0
763 -758 338 0
-763 -758 -338 0
758 -764 0
763 -764 0
-758 -763 764 0
220 -765 0
102 -765 0
-220 -102 765 0
-764 762 0
-765 762 0
764 765 -762 0
103 221 -767 0
-103 221 767 0
103 -221 767 0
-103 -221 -767 0
767 762 -339 0
-767 762 339 0
767 -762 339 0
-767 -762 -339 0
762 -768 0
767 -768 0
-762 -767 768 0
221 -769 0
103 -769 0
-221 -103 769 0
-768 766 0
-769 766 0
768 769 -766 0
104 222 -771 0
-104 222 771 0
104 -222 771 0
-104 -222 -771 0
771 766 -340 0
-771 766 340 0
771 -766 340 0
-771 -766 -340 0
766 -772 0
771 -772 0
-766 -771 772 0
222 -773 0
104 -773 0
-222 -104 773 0
-772 770 0
-773 770 0
772 773 -770 0
105 223 -775 0
-105 223 775 0
105 -223 775 0
-105 -223 -775 0
775 770 -341 0
-775 770 341 0
775 -770 341 0
-775 -770 -341 0
770 -776 0
775 -776 0
-770 -775 776 0
223 -777 0
105 -777 0
-223 -105 777 0
-776 774 0
-777 774 0
776 777 -774 0
106 224 -779 0
-106 224 779 0
106 -224 779 0
-106 -224 -779 0
779 774 -342 0
-779 774 342 0
779 -774 342 0
-779 -774 -342 0
774 -780 0
779 -780 0
-774 -779 780 0
224 -781 0
106 -781 0
-224 -106 781 0
-780 778 0
-781 778 0
780 781 -778 0
107 225 -783 0
-107 225 783 0
107 -225 783 0
-107 -225 -783 0
783 778 -343 0
-783 778 343 0
783 -778 343 0
-783 -778 -343 0
778 -784 0
783 -784 0
-778 -783 784 0
225 -785 0
107 -785 0
-225 -107 785 0
-784 782 0
-785 782 0
784 785 -782 0
108 226 -787 0
-108 226 787 0
108 -226 787 0
-108 -226 -787 0
787 782 -344 0
-787 782 344 0
787 -782 344 0
-787 -782 -344 0
782 -788 0
787 -788 0
-782 -787 788 0
226 -789 0
108 -789 0
-226 -108 789 0
-788 786 0
-789 786 0
788 789 -786 0
109 227 -791 0
-109 227 791 0
109 -227 791 0
-109 -227 -791 0
791 786 -345 0
-791 786 345 0
791 -786 345 0
-791 -786 -345 0
786 -792 0
791 -792 0
-786 -791 792 0
227 -793 0
109 -793 0
-227 -109 793 0
-792 790 0
-793 790 0
792 793 -790 0
110 228 -795 0
-110 228 795 0
110 -228 795 0
-110 -228 -795 0
795 790 -346 0
-795 790 346 0
795 -790 346 0
-795 -790 -346 0
790 -796 0
795 -796 0
-790 -795 796 0
228 -797 0
110 -797 0
-228 -110 797 0
-796 794 0
-797 794 0
796 797 -794 0
111 229 -799 0
-111 229 799 0
111 -229 799 0
-111 -229 -799 0
799 794 -347 0
-799 794 347 0
799 -794 347 0
-799 -794 -347 0
794 -800 0
799 -800 0
-794 -799 800 0
229 -801 0
111 -801 0
-229 -111 801 0
-800 798 0
-801 798 0
800 801 -798 0
112 230 -803 0
-112 230 803 0
112 -230 803 0
-112 -230 -803 0
803 798 -348 0
-803 798 348 0
803 -798 348 0
-803 -798 -348 0
798 -804 0
803 -804 0
-798 -803 804 0
230 -805 0
112 -805 0
-230 -112 805 0
-804 802 0
-805 802 0
804 805 -802 0
113 231 -807 0
-113 231 807 0
113 -231 807 0
-113 -231 -807 0
807 802 -349 0
-807 802 349 0
807 -802 349 0
-807 -802 -349 0
802 -808 0
807 -808 0
-802 -807 808 0
231 -809 0
113 -809 0
-231 -113 809 0
-808 806 0
-809 806 0
808 809 -806 0
114 232 -811 0
-114 232 811 0
114 -232 811 0
-114 -232 -811 0
811 806 -350 0
-811 806 350 0
811 -806 350 0
-811 -806 -350 0
806 -812 0
811 -812 0
-806 -811 812 0
232 -813 0
114 -813 0
-232 -114 813 0
-812 810 0
-813 810 0
812 813 -810 0
115 233 -815 0
-115 233 815 0
115 -233 815 0
-115 -233 -815 0
815 810 -351 0
-815 810 351 0
815 -810 351 0
-815 -810 -351 0
810 -816 0
815 -816 0
-810 -815 816 0
233 -817 0
115 -817 0
-233 -115 817 0
-816 814 0
-817 814 0
816 817 -814 0
116 234 -819 0
-116 234 819 0
116 -234 819 0
-116 -234 -819 0
819 814 -352 0
-819 814 352 0
819 -814 352 0
-819 -814 -352 0
814 -820 0
819 -820 0
-814 -819 820 0
234 -821 0
116 -821 0
-234 -116 821 0
-820 818 0
-821 818 0
820 821 -818 0
117 235 -823 0
-117 235 823 0
117 -235 823 0
-117 -235 -823 0
823 818 -353 0
-823 818 353 0
823 -818 353 0
-823 -818 -353 0
818 -824 0
823 -824 0
-818 -823 824 0
235 -825 0
117 -825 0
-235 -117 825 0
-824 822 0
-825 822 0
824 825 -822 0
118 236 -826 0
-118 236 826 0
118 -236 826 0
-118 -236 -826 0
826 822 -354 0
-826 822 354 0
826 -822 354 0
-826 -822 -354 0
822 -827 0
826 -827 0
-822 -826 827 0
236 -828 0
118 -828 0
-236 -118 828 0
-827 355 0
-828 355 0
827 828 -355 0
